100 6 100
73 62 11 15 8 36 76 72 6 95 32 84 29 90 11 79 33 85 10 12 15 1 27 66 18 86 3 83 62 80 8 77 43 75 85 79 4 9 37 99 93 74 29 84 85 8 69 37 45 31 49 13 32 28 79 2 15 34 37 29 66 45 6 9 73 44 89 77 5 78 76 51 52 57 87 37 17 56 26 15 39 28 28 72 56 59 74 23 93 12 5 59 9 63 68 82 7 9 11 65 
